(set-logic QF_NRA)
(declare-fun y1 () Real)
(declare-fun y12 () Real)
(declare-fun y23 () Real)
(declare-fun y34 () Real)
(declare-fun y41 () Real)
(assert (<= 2.6181 y1))
(assert (<= y1 2.6508))
(assert (<= 2.0 y12))
(assert (<= y12 2.46350884418))
(assert (<= 2.0 y23))
(assert (<= y23 2.46350884418))
(assert (<= 2.0 y34))
(assert (<= y34 2.46350884418))
(assert (<= 2.0 y41))
(assert (<= y41 2.46350884418))
(assert (not (< (+ (* 2.0 (* 3.14159265 0.061714)) (+ (* (+ (- 0.014502) (+ 0.134266 (+ (- 0.059882) (- 0.059882)))) y1) (+ (* 2.0 (* (+ (- 0.02407) 0.02407) y12)) (+ (* 2.0 (* (+ 0.02407 (- 0.02407)) y23)) (+ (* 2.0 (* (+ (- 0.02407) (- 0.02407)) y34)) (+ (* 2.0 (* (+ (- 0.02407) (- 0.02407)) y41)) (+ 0.104941 (+ (- 0.631477) (+ 0.261947 0.261947))))))))) 0.0)))
(check-sat)
(exit)
